c This file is generated by v2cnfMtr
c Generated on Mon Feb 22 16:55:34 2016
p cnf 1204 3109
1 96 0
-1 -96 0
2 97 0
-2 -97 0
4 98 0
-4 -98 0
6 99 0
-6 -99 0
8 100 0
-8 -100 0
10 101 0
-10 -101 0
12 102 0
-12 -102 0
14 103 0
-14 -103 0
16 104 0
-16 -104 0
18 105 0
-18 -105 0
20 106 0
-20 -106 0
22 107 0
-22 -107 0
24 108 0
-24 -108 0
26 109 0
-26 -109 0
28 110 0
-28 -110 0
30 111 0
-30 -111 0
32 112 0
-32 -112 0
34 113 0
-34 -113 0
-96 -2 -114 0
96 114 0
2 114 0
3 97 115 0
-3 -115 0
-97 -115 0
5 97 116 0
-5 -116 0
-97 -116 0
-98 -6 -117 0
98 117 0
6 117 0
-100 -10 -118 0
100 118 0
10 118 0
-102 -14 -119 0
102 119 0
14 119 0
-104 -18 -120 0
104 120 0
18 120 0
-106 -22 -121 0
106 121 0
22 121 0
-108 -26 -122 0
108 122 0
26 122 0
-110 -30 -123 0
110 123 0
30 123 0
-112 -34 -124 0
112 124 0
34 124 0
7 99 125 0
-7 -125 0
-99 -125 0
9 99 126 0
-9 -126 0
-99 -126 0
11 101 127 0
-11 -127 0
-101 -127 0
13 101 128 0
-13 -128 0
-101 -128 0
15 103 129 0
-15 -129 0
-103 -129 0
17 103 130 0
-17 -130 0
-103 -130 0
19 105 131 0
-19 -131 0
-105 -131 0
21 105 132 0
-21 -132 0
-105 -132 0
23 107 133 0
-23 -133 0
-107 -133 0
25 107 134 0
-25 -134 0
-107 -134 0
27 109 135 0
-27 -135 0
-109 -135 0
29 109 136 0
-29 -136 0
-109 -136 0
31 111 137 0
-31 -137 0
-111 -137 0
33 111 138 0
-33 -138 0
-111 -138 0
35 113 139 0
-35 -139 0
-113 -139 0
36 113 140 0
-36 -140 0
-113 -140 0
-114 -117 -118 -119 -120 -121 -122 -123 -124 141 0
114 -141 0
117 -141 0
118 -141 0
119 -141 0
120 -141 0
121 -141 0
122 -141 0
123 -141 0
124 -141 0
141 142 0
-141 -142 0
141 143 0
-141 -143 0
141 89 0
-141 -89 0
-142 -114 -144 0
142 114 -144 0
142 -114 144 0
-142 114 144 0
-142 -117 -145 0
142 117 -145 0
142 -117 145 0
-142 117 145 0
-142 -118 -146 0
142 118 -146 0
142 -118 146 0
-142 118 146 0
-142 -119 -147 0
142 119 -147 0
142 -119 147 0
-142 119 147 0
-142 -120 -148 0
142 120 -148 0
142 -120 148 0
-142 120 148 0
-142 -121 -149 0
142 121 -149 0
142 -121 149 0
-142 121 149 0
-1 -143 -150 0
1 150 0
143 150 0
-142 -122 -151 0
142 122 -151 0
142 -122 151 0
-142 122 151 0
-142 -123 -153 0
142 123 -153 0
142 -123 153 0
-142 123 153 0
-143 -8 -154 0
143 154 0
8 154 0
-142 -124 -155 0
142 124 -155 0
142 -124 155 0
-142 124 155 0
-143 -12 -156 0
143 156 0
12 156 0
-143 -16 -157 0
143 157 0
16 157 0
-143 -20 -158 0
143 158 0
20 158 0
-143 -24 -159 0
143 159 0
24 159 0
-143 -28 -160 0
143 160 0
28 160 0
-143 -32 -161 0
143 161 0
32 161 0
-144 -115 -162 0
144 162 0
115 162 0
-144 -116 -163 0
144 163 0
116 163 0
-146 -127 -165 0
146 165 0
127 165 0
-147 -129 -166 0
147 166 0
129 166 0
-148 -131 -167 0
148 167 0
131 167 0
-149 -133 -168 0
149 168 0
133 168 0
-151 -135 -169 0
151 169 0
135 169 0
-153 -137 -170 0
153 170 0
137 170 0
-155 -139 -171 0
155 171 0
139 171 0
-145 -126 -172 0
145 172 0
126 172 0
-146 -128 -173 0
146 173 0
128 173 0
-147 -130 -174 0
147 174 0
130 174 0
-148 -132 -175 0
148 175 0
132 175 0
-149 -134 -176 0
149 176 0
134 176 0
-151 -136 -177 0
151 177 0
136 177 0
-153 -138 -178 0
153 178 0
138 178 0
-155 -140 -179 0
155 179 0
140 179 0
-162 -164 -165 -166 -167 -168 -169 -170 -171 180 0
162 -180 0
164 -180 0
165 -180 0
166 -180 0
167 -180 0
168 -180 0
169 -180 0
170 -180 0
171 -180 0
163 181 0
-163 -181 0
172 182 0
-172 -182 0
173 183 0
-173 -183 0
174 184 0
-174 -184 0
175 185 0
-175 -185 0
176 186 0
-176 -186 0
177 187 0
-177 -187 0
178 188 0
-178 -188 0
179 189 0
-179 -189 0
180 190 0
-180 -190 0
180 191 0
-180 -191 0
180 90 0
-180 -90 0
-190 -162 -192 0
190 162 -192 0
190 -162 192 0
-190 162 192 0
-190 -164 -193 0
190 164 -193 0
190 -164 193 0
-190 164 193 0
-190 -165 -194 0
190 165 -194 0
190 -165 194 0
-190 165 194 0
-190 -166 -195 0
190 166 -195 0
190 -166 195 0
-190 166 195 0
-3 -191 -196 0
3 196 0
191 196 0
-190 -167 -197 0
190 167 -197 0
190 -167 197 0
-190 167 197 0
-191 -7 -198 0
191 198 0
7 198 0
-190 -168 -199 0
190 168 -199 0
190 -168 199 0
-190 168 199 0
-191 -11 -200 0
191 200 0
11 200 0
-190 -169 -201 0
190 169 -201 0
190 -169 201 0
-190 169 201 0
-190 -170 -203 0
190 170 -203 0
190 -170 203 0
-190 170 203 0
-191 -19 -204 0
191 204 0
19 204 0
-190 -171 -205 0
190 171 -205 0
190 -171 205 0
-190 171 205 0
-191 -23 -206 0
191 206 0
23 206 0
-191 -27 -207 0
191 207 0
27 207 0
-191 -31 -208 0
191 208 0
31 208 0
-191 -35 -209 0
191 209 0
35 209 0
-192 -181 -210 0
192 210 0
181 210 0
-193 -182 -211 0
193 211 0
182 211 0
-194 -183 -212 0
194 212 0
183 212 0
-195 -184 -213 0
195 213 0
184 213 0
-197 -185 -214 0
197 214 0
185 214 0
-199 -186 -215 0
199 215 0
186 215 0
-201 -187 -216 0
201 216 0
187 216 0
-203 -188 -217 0
203 217 0
188 217 0
-205 -189 -218 0
205 218 0
189 218 0
-210 -211 -212 -213 -214 -215 -216 -217 -218 219 0
210 -219 0
211 -219 0
212 -219 0
213 -219 0
214 -219 0
215 -219 0
216 -219 0
217 -219 0
218 -219 0
219 220 0
-219 -220 0
219 91 0
-219 -91 0
-5 -220 -221 0
5 221 0
220 221 0
-220 -9 -222 0
220 222 0
9 222 0
-220 -13 -223 0
220 223 0
13 223 0
-220 -17 -224 0
220 224 0
17 224 0
-220 -21 -225 0
220 225 0
21 225 0
-220 -25 -226 0
220 226 0
25 226 0
-220 -33 -228 0
220 228 0
33 228 0
-220 -36 -229 0
220 229 0
36 229 0
-2 -150 -196 -221 -230 0
2 230 0
150 230 0
196 230 0
221 230 0
-152 -198 -222 -6 -231 0
152 231 0
198 231 0
222 231 0
6 231 0
-154 -200 -223 -10 -232 0
154 232 0
200 232 0
223 232 0
10 232 0
-157 -204 -225 -18 -234 0
157 234 0
204 234 0
225 234 0
18 234 0
-158 -206 -226 -22 -235 0
158 235 0
206 235 0
226 235 0
22 235 0
-159 -207 -227 -26 -236 0
159 236 0
207 236 0
227 236 0
26 236 0
-160 -208 -228 -30 -237 0
160 237 0
208 237 0
228 237 0
30 237 0
-161 -209 -229 -34 -238 0
161 238 0
209 238 0
229 238 0
34 238 0
230 239 0
-230 -239 0
-231 -232 -233 -234 -235 -236 -237 -238 240 0
231 -240 0
232 -240 0
233 -240 0
234 -240 0
235 -240 0
236 -240 0
237 -240 0
238 -240 0
233 241 0
-233 -241 0
235 242 0
-235 -242 0
236 243 0
-236 -243 0
237 244 0
-237 -244 0
239 240 92 0
-239 -92 0
-240 -92 0
-232 -241 -245 0
232 245 0
241 245 0
-232 -233 -242 -234 -246 0
232 246 0
233 246 0
242 246 0
234 246 0
-234 -233 -243 -247 0
234 247 0
233 247 0
243 247 0
-232 -233 -236 -244 -248 0
232 248 0
233 248 0
236 248 0
244 248 0
-231 -232 -245 -234 -93 0
231 93 0
232 93 0
245 93 0
234 93 0
-231 -232 -246 -247 -94 0
231 94 0
232 94 0
246 94 0
247 94 0
-231 -245 -246 -248 -95 0
231 95 0
245 95 0
246 95 0
248 95 0
39 249 0
-39 -249 0
40 250 0
-40 -250 0
143 251 0
-143 -251 0
-143 -249 253 0
143 -253 0
249 -253 0
-251 -249 254 0
251 -254 0
249 -254 0
-37 -39 255 0
37 -255 0
39 -255 0
-38 -39 256 0
38 -256 0
39 -256 0
-253 -250 262 0
253 -262 0
250 -262 0
-254 -40 260 0
254 -260 0
40 -260 0
-255 -250 258 0
255 -258 0
250 -258 0
-256 -40 257 0
256 -257 0
40 -257 0
257 258 -259 0
-257 259 0
-258 259 0
259 260 -261 0
-259 261 0
-260 261 0
262 261 -252 0
-262 252 0
-261 252 0
41 263 0
-41 -263 0
42 264 0
-42 -264 0
4 265 0
-4 -265 0
-4 -263 267 0
4 -267 0
263 -267 0
-265 -263 268 0
265 -268 0
263 -268 0
-37 -41 269 0
37 -269 0
41 -269 0
-38 -41 270 0
38 -270 0
41 -270 0
-267 -264 276 0
267 -276 0
264 -276 0
-268 -42 274 0
268 -274 0
42 -274 0
-269 -264 272 0
269 -272 0
264 -272 0
-270 -42 271 0
270 -271 0
42 -271 0
271 272 -273 0
-271 273 0
-272 273 0
273 274 -275 0
-273 275 0
-274 275 0
276 275 -266 0
-276 266 0
-275 266 0
43 277 0
-43 -277 0
44 278 0
-44 -278 0
2 559 0
-2 -559 0
-2 -277 281 0
2 -281 0
277 -281 0
-559 -277 282 0
559 -282 0
277 -282 0
-37 -43 283 0
37 -283 0
43 -283 0
-38 -43 284 0
38 -284 0
43 -284 0
-281 -278 290 0
281 -290 0
278 -290 0
-282 -44 288 0
282 -288 0
44 -288 0
-283 -278 286 0
283 -286 0
278 -286 0
-284 -44 285 0
284 -285 0
44 -285 0
285 286 -287 0
-285 287 0
-286 287 0
287 288 -289 0
-287 289 0
-288 289 0
290 289 -560 0
-290 560 0
-289 560 0
45 291 0
-45 -291 0
46 292 0
-46 -292 0
1 573 0
-1 -573 0
-1 -291 295 0
1 -295 0
291 -295 0
-573 -291 296 0
573 -296 0
291 -296 0
-37 -45 297 0
37 -297 0
45 -297 0
-38 -45 298 0
38 -298 0
45 -298 0
-295 -292 304 0
295 -304 0
292 -304 0
-296 -46 302 0
296 -302 0
46 -302 0
-297 -292 300 0
297 -300 0
292 -300 0
-298 -46 299 0
298 -299 0
46 -299 0
299 300 -301 0
-299 301 0
-300 301 0
301 302 -303 0
-301 303 0
-302 303 0
304 303 -574 0
-304 574 0
-303 574 0
47 305 0
-47 -305 0
48 306 0
-48 -306 0
308 307 0
-308 -307 0
-308 -305 309 0
308 -309 0
305 -309 0
-307 -305 310 0
307 -310 0
305 -310 0
-37 -47 311 0
37 -311 0
47 -311 0
-38 -47 312 0
38 -312 0
47 -312 0
-309 -306 318 0
309 -318 0
306 -318 0
-310 -48 316 0
310 -316 0
48 -316 0
-311 -306 314 0
311 -314 0
306 -314 0
-312 -48 313 0
312 -313 0
48 -313 0
313 314 -315 0
-313 315 0
-314 315 0
315 316 -317 0
-315 317 0
-316 317 0
318 317 -152 0
-318 152 0
-317 152 0
-252 -266 -560 -574 -308 0
252 308 0
266 308 0
560 308 0
574 308 0
49 319 0
-49 -319 0
50 320 0
-50 -320 0
156 321 0
-156 -321 0
-156 -319 323 0
156 -323 0
319 -323 0
-321 -319 324 0
321 -324 0
319 -324 0
-37 -49 325 0
37 -325 0
49 -325 0
-38 -49 326 0
38 -326 0
49 -326 0
-323 -320 332 0
323 -332 0
320 -332 0
-324 -50 330 0
324 -330 0
50 -330 0
-325 -320 328 0
325 -328 0
320 -328 0
-326 -50 327 0
326 -327 0
50 -327 0
327 328 -329 0
-327 329 0
-328 329 0
329 330 -331 0
-329 331 0
-330 331 0
332 331 -322 0
-332 322 0
-331 322 0
51 333 0
-51 -333 0
52 334 0
-52 -334 0
202 335 0
-202 -335 0
-202 -333 337 0
202 -337 0
333 -337 0
-335 -333 338 0
335 -338 0
333 -338 0
-37 -51 339 0
37 -339 0
51 -339 0
-38 -51 340 0
38 -340 0
51 -340 0
-337 -334 346 0
337 -346 0
334 -346 0
-338 -52 344 0
338 -344 0
52 -344 0
-339 -334 342 0
339 -342 0
334 -342 0
-340 -52 341 0
340 -341 0
52 -341 0
341 342 -343 0
-341 343 0
-342 343 0
343 344 -345 0
-343 345 0
-344 345 0
346 345 -588 0
-346 588 0
-345 588 0
53 347 0
-53 -347 0
54 348 0
-54 -348 0
224 349 0
-224 -349 0
-224 -347 351 0
224 -351 0
347 -351 0
-349 -347 352 0
349 -352 0
347 -352 0
-37 -53 353 0
37 -353 0
53 -353 0
-38 -53 354 0
38 -354 0
53 -354 0
-351 -348 360 0
351 -360 0
348 -360 0
-352 -54 358 0
352 -358 0
54 -358 0
-353 -348 356 0
353 -356 0
348 -356 0
-354 -54 355 0
354 -355 0
54 -355 0
355 356 -357 0
-355 357 0
-356 357 0
357 358 -359 0
-357 359 0
-358 359 0
360 359 -350 0
-360 350 0
-359 350 0
55 361 0
-55 -361 0
56 362 0
-56 -362 0
14 363 0
-14 -363 0
-14 -361 365 0
14 -365 0
361 -365 0
-363 -361 366 0
363 -366 0
361 -366 0
-37 -55 367 0
37 -367 0
55 -367 0
-38 -55 368 0
38 -368 0
55 -368 0
-365 -362 374 0
365 -374 0
362 -374 0
-366 -56 372 0
366 -372 0
56 -372 0
-367 -362 370 0
367 -370 0
362 -370 0
-368 -56 369 0
368 -369 0
56 -369 0
369 370 -371 0
-369 371 0
-370 371 0
371 372 -373 0
-371 373 0
-372 373 0
374 373 -364 0
-374 364 0
-373 364 0
57 375 0
-57 -375 0
58 376 0
-58 -376 0
378 377 0
-378 -377 0
-378 -375 379 0
378 -379 0
375 -379 0
-377 -375 380 0
377 -380 0
375 -380 0
-37 -57 381 0
37 -381 0
57 -381 0
-38 -57 382 0
38 -382 0
57 -382 0
-379 -376 388 0
379 -388 0
376 -388 0
-380 -58 386 0
380 -386 0
58 -386 0
-381 -376 384 0
381 -384 0
376 -384 0
-382 -58 383 0
382 -383 0
58 -383 0
383 384 -385 0
-383 385 0
-384 385 0
385 386 -387 0
-385 387 0
-386 387 0
388 387 -233 0
-388 233 0
-387 233 0
-322 -588 -350 -364 -378 0
322 378 0
588 378 0
350 378 0
364 378 0
59 389 0
-59 -389 0
60 390 0
-60 -390 0
220 391 0
-220 -391 0
-220 -389 393 0
220 -393 0
389 -393 0
-391 -389 394 0
391 -394 0
389 -394 0
-37 -59 395 0
37 -395 0
59 -395 0
-38 -59 396 0
38 -396 0
59 -396 0
-393 -390 402 0
393 -402 0
390 -402 0
-394 -60 400 0
394 -400 0
60 -400 0
-395 -390 398 0
395 -398 0
390 -398 0
-396 -60 397 0
396 -397 0
60 -397 0
397 398 -399 0
-397 399 0
-398 399 0
399 400 -401 0
-399 401 0
-400 401 0
402 401 -392 0
-402 392 0
-401 392 0
61 403 0
-61 -403 0
62 404 0
-62 -404 0
29 405 0
-29 -405 0
-29 -403 407 0
29 -407 0
403 -407 0
-405 -403 408 0
405 -408 0
403 -408 0
-37 -61 409 0
37 -409 0
61 -409 0
-38 -61 410 0
38 -410 0
61 -410 0
-407 -404 416 0
407 -416 0
404 -416 0
-408 -62 414 0
408 -414 0
62 -414 0
-409 -404 412 0
409 -412 0
404 -412 0
-410 -62 411 0
410 -411 0
62 -411 0
411 412 -413 0
-411 413 0
-412 413 0
413 414 -415 0
-413 415 0
-414 415 0
416 415 -406 0
-416 406 0
-415 406 0
63 417 0
-63 -417 0
64 418 0
-64 -418 0
2 559 0
-2 -559 0
-2 -417 421 0
2 -421 0
417 -421 0
-559 -417 422 0
559 -422 0
417 -422 0
-37 -63 423 0
37 -423 0
63 -423 0
-38 -63 424 0
38 -424 0
63 -424 0
-421 -418 430 0
421 -430 0
418 -430 0
-422 -64 428 0
422 -428 0
64 -428 0
-423 -418 426 0
423 -426 0
418 -426 0
-424 -64 425 0
424 -425 0
64 -425 0
425 426 -427 0
-425 427 0
-426 427 0
427 428 -429 0
-427 429 0
-428 429 0
430 429 -560 0
-430 560 0
-429 560 0
65 431 0
-65 -431 0
66 432 0
-66 -432 0
1 573 0
-1 -573 0
-1 -431 435 0
1 -435 0
431 -435 0
-573 -431 436 0
573 -436 0
431 -436 0
-37 -65 437 0
37 -437 0
65 -437 0
-38 -65 438 0
38 -438 0
65 -438 0
-435 -432 444 0
435 -444 0
432 -444 0
-436 -66 442 0
436 -442 0
66 -442 0
-437 -432 440 0
437 -440 0
432 -440 0
-438 -66 439 0
438 -439 0
66 -439 0
439 440 -441 0
-439 441 0
-440 441 0
441 442 -443 0
-441 443 0
-442 443 0
444 443 -574 0
-444 574 0
-443 574 0
67 445 0
-67 -445 0
68 446 0
-68 -446 0
448 447 0
-448 -447 0
-448 -445 449 0
448 -449 0
445 -449 0
-447 -445 450 0
447 -450 0
445 -450 0
-37 -67 451 0
37 -451 0
67 -451 0
-38 -67 452 0
38 -452 0
67 -452 0
-449 -446 458 0
449 -458 0
446 -458 0
-450 -68 456 0
450 -456 0
68 -456 0
-451 -446 454 0
451 -454 0
446 -454 0
-452 -68 453 0
452 -453 0
68 -453 0
453 454 -455 0
-453 455 0
-454 455 0
455 456 -457 0
-455 457 0
-456 457 0
458 457 -227 0
-458 227 0
-457 227 0
-392 -406 -560 -574 -448 0
392 448 0
406 448 0
560 448 0
574 448 0
69 459 0
-69 -459 0
70 460 0
-70 -460 0
145 461 0
-145 -461 0
-145 -459 463 0
145 -463 0
459 -463 0
-461 -459 464 0
461 -464 0
459 -464 0
-37 -69 465 0
37 -465 0
69 -465 0
-38 -69 466 0
38 -466 0
69 -466 0
-463 -460 472 0
463 -472 0
460 -472 0
-464 -70 470 0
464 -470 0
70 -470 0
-465 -460 468 0
465 -468 0
460 -468 0
-466 -70 467 0
466 -467 0
70 -467 0
467 468 -469 0
-467 469 0
-468 469 0
469 470 -471 0
-469 471 0
-470 471 0
472 471 -462 0
-472 462 0
-471 462 0
71 473 0
-71 -473 0
72 474 0
-72 -474 0
125 475 0
-125 -475 0
-125 -473 477 0
125 -477 0
473 -477 0
-475 -473 478 0
475 -478 0
473 -478 0
-37 -71 479 0
37 -479 0
71 -479 0
-38 -71 480 0
38 -480 0
71 -480 0
-477 -474 486 0
477 -486 0
474 -486 0
-478 -72 484 0
478 -484 0
72 -484 0
-479 -474 482 0
479 -482 0
474 -482 0
-480 -72 481 0
480 -481 0
72 -481 0
481 482 -483 0
-481 483 0
-482 483 0
483 484 -485 0
-483 485 0
-484 485 0
486 485 -476 0
-486 476 0
-485 476 0
73 487 0
-73 -487 0
74 488 0
-74 -488 0
2 559 0
-2 -559 0
-2 -487 491 0
2 -491 0
487 -491 0
-559 -487 492 0
559 -492 0
487 -492 0
-37 -73 493 0
37 -493 0
73 -493 0
-38 -73 494 0
38 -494 0
73 -494 0
-491 -488 500 0
491 -500 0
488 -500 0
-492 -74 498 0
492 -498 0
74 -498 0
-493 -488 496 0
493 -496 0
488 -496 0
-494 -74 495 0
494 -495 0
74 -495 0
495 496 -497 0
-495 497 0
-496 497 0
497 498 -499 0
-497 499 0
-498 499 0
500 499 -560 0
-500 560 0
-499 560 0
75 501 0
-75 -501 0
76 502 0
-76 -502 0
1 573 0
-1 -573 0
-1 -501 505 0
1 -505 0
501 -505 0
-573 -501 506 0
573 -506 0
501 -506 0
-37 -75 507 0
37 -507 0
75 -507 0
-38 -75 508 0
38 -508 0
75 -508 0
-505 -502 514 0
505 -514 0
502 -514 0
-506 -76 512 0
506 -512 0
76 -512 0
-507 -502 510 0
507 -510 0
502 -510 0
-508 -76 509 0
508 -509 0
76 -509 0
509 510 -511 0
-509 511 0
-510 511 0
511 512 -513 0
-511 513 0
-512 513 0
514 513 -574 0
-514 574 0
-513 574 0
77 515 0
-77 -515 0
78 516 0
-78 -516 0
518 517 0
-518 -517 0
-518 -515 519 0
518 -519 0
515 -519 0
-517 -515 520 0
517 -520 0
515 -520 0
-37 -77 521 0
37 -521 0
77 -521 0
-38 -77 522 0
38 -522 0
77 -522 0
-519 -516 528 0
519 -528 0
516 -528 0
-520 -78 526 0
520 -526 0
78 -526 0
-521 -516 524 0
521 -524 0
516 -524 0
-522 -78 523 0
522 -523 0
78 -523 0
523 524 -525 0
-523 525 0
-524 525 0
525 526 -527 0
-525 527 0
-526 527 0
528 527 -164 0
-528 164 0
-527 164 0
-462 -476 -560 -574 -518 0
462 518 0
476 518 0
560 518 0
574 518 0
79 529 0
-79 -529 0
80 530 0
-80 -530 0
191 531 0
-191 -531 0
-191 -529 533 0
191 -533 0
529 -533 0
-531 -529 534 0
531 -534 0
529 -534 0
-37 -79 535 0
37 -535 0
79 -535 0
-38 -79 536 0
38 -536 0
79 -536 0
-533 -530 542 0
533 -542 0
530 -542 0
-534 -80 540 0
534 -540 0
80 -540 0
-535 -530 538 0
535 -538 0
530 -538 0
-536 -80 537 0
536 -537 0
80 -537 0
537 538 -539 0
-537 539 0
-538 539 0
539 540 -541 0
-539 541 0
-540 541 0
542 541 -532 0
-542 532 0
-541 532 0
81 543 0
-81 -543 0
82 544 0
-82 -544 0
15 545 0
-15 -545 0
-15 -543 547 0
15 -547 0
543 -547 0
-545 -543 548 0
545 -548 0
543 -548 0
-37 -81 549 0
37 -549 0
81 -549 0
-38 -81 550 0
38 -550 0
81 -550 0
-547 -544 556 0
547 -556 0
544 -556 0
-548 -82 554 0
548 -554 0
82 -554 0
-549 -544 552 0
549 -552 0
544 -552 0
-550 -82 551 0
550 -551 0
82 -551 0
551 552 -553 0
-551 553 0
-552 553 0
553 554 -555 0
-553 555 0
-554 555 0
556 555 -546 0
-556 546 0
-555 546 0
83 557 0
-83 -557 0
84 558 0
-84 -558 0
2 559 0
-2 -559 0
-2 -557 561 0
2 -561 0
557 -561 0
-559 -557 562 0
559 -562 0
557 -562 0
-37 -83 563 0
37 -563 0
83 -563 0
-38 -83 564 0
38 -564 0
83 -564 0
-561 -558 570 0
561 -570 0
558 -570 0
-562 -84 568 0
562 -568 0
84 -568 0
-563 -558 566 0
563 -566 0
558 -566 0
-564 -84 565 0
564 -565 0
84 -565 0
565 566 -567 0
-565 567 0
-566 567 0
567 568 -569 0
-567 569 0
-568 569 0
570 569 -560 0
-570 560 0
-569 560 0
85 571 0
-85 -571 0
86 572 0
-86 -572 0
1 573 0
-1 -573 0
-1 -571 575 0
1 -575 0
571 -575 0
-573 -571 576 0
573 -576 0
571 -576 0
-37 -85 577 0
37 -577 0
85 -577 0
-38 -85 578 0
38 -578 0
85 -578 0
-575 -572 584 0
575 -584 0
572 -584 0
-576 -86 582 0
576 -582 0
86 -582 0
-577 -572 580 0
577 -580 0
572 -580 0
-578 -86 579 0
578 -579 0
86 -579 0
579 580 -581 0
-579 581 0
-580 581 0
581 582 -583 0
-581 583 0
-582 583 0
584 583 -574 0
-584 574 0
-583 574 0
87 585 0
-87 -585 0
88 586 0
-88 -586 0
588 587 0
-588 -587 0
-588 -585 589 0
588 -589 0
585 -589 0
-587 -585 590 0
587 -590 0
585 -590 0
-37 -87 591 0
37 -591 0
87 -591 0
-38 -87 592 0
38 -592 0
87 -592 0
-589 -586 598 0
589 -598 0
586 -598 0
-590 -88 596 0
590 -596 0
88 -596 0
-591 -586 594 0
591 -594 0
586 -594 0
-592 -88 593 0
592 -593 0
88 -593 0
593 594 -595 0
-593 595 0
-594 595 0
595 596 -597 0
-595 597 0
-596 597 0
598 597 -202 0
-598 202 0
-597 202 0
-532 -546 -560 -574 -588 0
532 588 0
546 588 0
560 588 0
574 588 0
c The second circuit:
599 694 0
-599 -694 0
600 695 0
-600 -695 0
602 696 0
-602 -696 0
604 697 0
-604 -697 0
606 698 0
-606 -698 0
608 699 0
-608 -699 0
610 700 0
-610 -700 0
612 701 0
-612 -701 0
614 702 0
-614 -702 0
616 703 0
-616 -703 0
618 704 0
-618 -704 0
620 705 0
-620 -705 0
622 706 0
-622 -706 0
624 707 0
-624 -707 0
626 708 0
-626 -708 0
628 709 0
-628 -709 0
630 710 0
-630 -710 0
632 711 0
-632 -711 0
-694 -600 -712 0
694 712 0
600 712 0
601 695 713 0
-601 -713 0
-695 -713 0
603 695 714 0
-603 -714 0
-695 -714 0
-696 -604 -715 0
696 715 0
604 715 0
-698 -608 -716 0
698 716 0
608 716 0
-700 -612 -717 0
700 717 0
612 717 0
-702 -616 -718 0
702 718 0
616 718 0
-704 -620 -719 0
704 719 0
620 719 0
-706 -624 -720 0
706 720 0
624 720 0
-708 -628 -721 0
708 721 0
628 721 0
-710 -632 -722 0
710 722 0
632 722 0
605 697 723 0
-605 -723 0
-697 -723 0
607 697 724 0
-607 -724 0
-697 -724 0
609 699 725 0
-609 -725 0
-699 -725 0
611 699 726 0
-611 -726 0
-699 -726 0
613 701 727 0
-613 -727 0
-701 -727 0
615 701 728 0
-615 -728 0
-701 -728 0
617 703 729 0
-617 -729 0
-703 -729 0
619 703 730 0
-619 -730 0
-703 -730 0
621 705 731 0
-621 -731 0
-705 -731 0
623 705 732 0
-623 -732 0
-705 -732 0
625 707 733 0
-625 -733 0
-707 -733 0
627 707 734 0
-627 -734 0
-707 -734 0
629 709 735 0
-629 -735 0
-709 -735 0
631 709 736 0
-631 -736 0
-709 -736 0
633 711 737 0
-633 -737 0
-711 -737 0
634 711 738 0
-634 -738 0
-711 -738 0
-712 -715 -716 -717 -718 -719 -720 -721 -722 739 0
712 -739 0
715 -739 0
716 -739 0
717 -739 0
718 -739 0
719 -739 0
720 -739 0
721 -739 0
722 -739 0
739 740 0
-739 -740 0
739 741 0
-739 -741 0
739 687 0
-739 -687 0
-740 -712 -742 0
740 712 -742 0
740 -712 742 0
-740 712 742 0
-740 -715 -743 0
740 715 -743 0
740 -715 743 0
-740 715 743 0
-740 -716 -744 0
740 716 -744 0
740 -716 744 0
-740 716 744 0
-740 -717 -745 0
740 717 -745 0
740 -717 745 0
-740 717 745 0
-740 -718 -746 0
740 718 -746 0
740 -718 746 0
-740 718 746 0
-740 -719 -747 0
740 719 -747 0
740 -719 747 0
-740 719 747 0
-599 -741 -748 0
599 748 0
741 748 0
-740 -720 -749 0
740 720 -749 0
740 -720 749 0
-740 720 749 0
-740 -721 -751 0
740 721 -751 0
740 -721 751 0
-740 721 751 0
-741 -606 -752 0
741 752 0
606 752 0
-740 -722 -753 0
740 722 -753 0
740 -722 753 0
-740 722 753 0
-741 -610 -754 0
741 754 0
610 754 0
-741 -614 -755 0
741 755 0
614 755 0
-741 -618 -756 0
741 756 0
618 756 0
-741 -622 -757 0
741 757 0
622 757 0
-741 -626 -758 0
741 758 0
626 758 0
-741 -630 -759 0
741 759 0
630 759 0
-742 -713 -760 0
742 760 0
713 760 0
-742 -714 -761 0
742 761 0
714 761 0
-744 -725 -763 0
744 763 0
725 763 0
-745 -727 -764 0
745 764 0
727 764 0
-746 -729 -765 0
746 765 0
729 765 0
-747 -731 -766 0
747 766 0
731 766 0
-749 -733 -767 0
749 767 0
733 767 0
-751 -735 -768 0
751 768 0
735 768 0
-753 -737 -769 0
753 769 0
737 769 0
-743 -724 -770 0
743 770 0
724 770 0
-744 -726 -771 0
744 771 0
726 771 0
-745 -728 -772 0
745 772 0
728 772 0
-746 -730 -773 0
746 773 0
730 773 0
-747 -732 -774 0
747 774 0
732 774 0
-749 -734 -775 0
749 775 0
734 775 0
-751 -736 -776 0
751 776 0
736 776 0
-753 -738 -777 0
753 777 0
738 777 0
-760 -762 -763 -764 -765 -766 -767 -768 -769 778 0
760 -778 0
762 -778 0
763 -778 0
764 -778 0
765 -778 0
766 -778 0
767 -778 0
768 -778 0
769 -778 0
761 779 0
-761 -779 0
770 780 0
-770 -780 0
771 781 0
-771 -781 0
772 782 0
-772 -782 0
773 783 0
-773 -783 0
774 784 0
-774 -784 0
775 785 0
-775 -785 0
776 786 0
-776 -786 0
777 787 0
-777 -787 0
778 788 0
-778 -788 0
778 789 0
-778 -789 0
778 688 0
-778 -688 0
-788 -760 -790 0
788 760 -790 0
788 -760 790 0
-788 760 790 0
-788 -762 -791 0
788 762 -791 0
788 -762 791 0
-788 762 791 0
-788 -763 -792 0
788 763 -792 0
788 -763 792 0
-788 763 792 0
-788 -764 -793 0
788 764 -793 0
788 -764 793 0
-788 764 793 0
-601 -789 -794 0
601 794 0
789 794 0
-788 -765 -795 0
788 765 -795 0
788 -765 795 0
-788 765 795 0
-789 -605 -796 0
789 796 0
605 796 0
-788 -766 -797 0
788 766 -797 0
788 -766 797 0
-788 766 797 0
-789 -609 -798 0
789 798 0
609 798 0
-788 -767 -799 0
788 767 -799 0
788 -767 799 0
-788 767 799 0
-788 -768 -801 0
788 768 -801 0
788 -768 801 0
-788 768 801 0
-789 -617 -802 0
789 802 0
617 802 0
-788 -769 -803 0
788 769 -803 0
788 -769 803 0
-788 769 803 0
-789 -621 -804 0
789 804 0
621 804 0
-789 -625 -805 0
789 805 0
625 805 0
-789 -629 -806 0
789 806 0
629 806 0
-789 -633 -807 0
789 807 0
633 807 0
-790 -779 -808 0
790 808 0
779 808 0
-791 -780 -809 0
791 809 0
780 809 0
-792 -781 -810 0
792 810 0
781 810 0
-793 -782 -811 0
793 811 0
782 811 0
-795 -783 -812 0
795 812 0
783 812 0
-797 -784 -813 0
797 813 0
784 813 0
-799 -785 -814 0
799 814 0
785 814 0
-801 -786 -815 0
801 815 0
786 815 0
-803 -787 -816 0
803 816 0
787 816 0
-808 -809 -810 -811 -812 -813 -814 -815 -816 817 0
808 -817 0
809 -817 0
810 -817 0
811 -817 0
812 -817 0
813 -817 0
814 -817 0
815 -817 0
816 -817 0
817 818 0
-817 -818 0
817 689 0
-817 -689 0
-603 -818 -819 0
603 819 0
818 819 0
-818 -607 -820 0
818 820 0
607 820 0
-818 -611 -821 0
818 821 0
611 821 0
-818 -615 -822 0
818 822 0
615 822 0
-818 -619 -823 0
818 823 0
619 823 0
-818 -623 -824 0
818 824 0
623 824 0
-818 -631 -826 0
818 826 0
631 826 0
-818 -634 -827 0
818 827 0
634 827 0
-600 -748 -794 -819 -828 0
600 828 0
748 828 0
794 828 0
819 828 0
-750 -796 -820 -604 -829 0
750 829 0
796 829 0
820 829 0
604 829 0
-752 -798 -821 -608 -830 0
752 830 0
798 830 0
821 830 0
608 830 0
-755 -802 -823 -616 -832 0
755 832 0
802 832 0
823 832 0
616 832 0
-756 -804 -824 -620 -833 0
756 833 0
804 833 0
824 833 0
620 833 0
-757 -805 -825 -624 -834 0
757 834 0
805 834 0
825 834 0
624 834 0
-758 -806 -826 -628 -835 0
758 835 0
806 835 0
826 835 0
628 835 0
-759 -807 -827 -632 -836 0
759 836 0
807 836 0
827 836 0
632 836 0
828 837 0
-828 -837 0
-829 -830 -831 -832 -833 -834 -835 -836 838 0
829 -838 0
830 -838 0
831 -838 0
832 -838 0
833 -838 0
834 -838 0
835 -838 0
836 -838 0
831 839 0
-831 -839 0
833 840 0
-833 -840 0
834 841 0
-834 -841 0
835 842 0
-835 -842 0
837 838 690 0
-837 -690 0
-838 -690 0
-830 -839 -843 0
830 843 0
839 843 0
-830 -831 -840 -832 -844 0
830 844 0
831 844 0
840 844 0
832 844 0
-832 -831 -841 -845 0
832 845 0
831 845 0
841 845 0
-830 -831 -834 -842 -846 0
830 846 0
831 846 0
834 846 0
842 846 0
-829 -830 -843 -832 -691 0
829 691 0
830 691 0
843 691 0
832 691 0
-829 -830 -844 -845 -692 0
829 692 0
830 692 0
844 692 0
845 692 0
-829 -843 -844 -846 -693 0
829 693 0
843 693 0
844 693 0
846 693 0
637 847 0
-637 -847 0
638 848 0
-638 -848 0
741 849 0
-741 -849 0
-741 -847 851 0
741 -851 0
847 -851 0
-849 -847 852 0
849 -852 0
847 -852 0
-635 -637 853 0
635 -853 0
637 -853 0
-636 -637 854 0
636 -854 0
637 -854 0
-851 -848 860 0
851 -860 0
848 -860 0
-852 -638 858 0
852 -858 0
638 -858 0
-853 -848 856 0
853 -856 0
848 -856 0
-854 -638 855 0
854 -855 0
638 -855 0
855 856 -857 0
-855 857 0
-856 857 0
857 858 -859 0
-857 859 0
-858 859 0
860 859 -850 0
-860 850 0
-859 850 0
639 861 0
-639 -861 0
640 862 0
-640 -862 0
602 863 0
-602 -863 0
-602 -861 865 0
602 -865 0
861 -865 0
-863 -861 866 0
863 -866 0
861 -866 0
-635 -639 867 0
635 -867 0
639 -867 0
-636 -639 868 0
636 -868 0
639 -868 0
-865 -862 874 0
865 -874 0
862 -874 0
-866 -640 872 0
866 -872 0
640 -872 0
-867 -862 870 0
867 -870 0
862 -870 0
-868 -640 869 0
868 -869 0
640 -869 0
869 870 -871 0
-869 871 0
-870 871 0
871 872 -873 0
-871 873 0
-872 873 0
874 873 -864 0
-874 864 0
-873 864 0
641 875 0
-641 -875 0
642 876 0
-642 -876 0
600 1157 0
-600 -1157 0
-600 -875 879 0
600 -879 0
875 -879 0
-1157 -875 880 0
1157 -880 0
875 -880 0
-635 -641 881 0
635 -881 0
641 -881 0
-636 -641 882 0
636 -882 0
641 -882 0
-879 -876 888 0
879 -888 0
876 -888 0
-880 -642 886 0
880 -886 0
642 -886 0
-881 -876 884 0
881 -884 0
876 -884 0
-882 -642 883 0
882 -883 0
642 -883 0
883 884 -885 0
-883 885 0
-884 885 0
885 886 -887 0
-885 887 0
-886 887 0
888 887 -1158 0
-888 1158 0
-887 1158 0
643 889 0
-643 -889 0
644 890 0
-644 -890 0
599 1171 0
-599 -1171 0
-599 -889 893 0
599 -893 0
889 -893 0
-1171 -889 894 0
1171 -894 0
889 -894 0
-635 -643 895 0
635 -895 0
643 -895 0
-636 -643 896 0
636 -896 0
643 -896 0
-893 -890 902 0
893 -902 0
890 -902 0
-894 -644 900 0
894 -900 0
644 -900 0
-895 -890 898 0
895 -898 0
890 -898 0
-896 -644 897 0
896 -897 0
644 -897 0
897 898 -899 0
-897 899 0
-898 899 0
899 900 -901 0
-899 901 0
-900 901 0
902 901 -1172 0
-902 1172 0
-901 1172 0
645 903 0
-645 -903 0
646 904 0
-646 -904 0
906 905 0
-906 -905 0
-906 -903 907 0
906 -907 0
903 -907 0
-905 -903 908 0
905 -908 0
903 -908 0
-635 -645 909 0
635 -909 0
645 -909 0
-636 -645 910 0
636 -910 0
645 -910 0
-907 -904 916 0
907 -916 0
904 -916 0
-908 -646 914 0
908 -914 0
646 -914 0
-909 -904 912 0
909 -912 0
904 -912 0
-910 -646 911 0
910 -911 0
646 -911 0
911 912 -913 0
-911 913 0
-912 913 0
913 914 -915 0
-913 915 0
-914 915 0
916 915 -750 0
-916 750 0
-915 750 0
-850 -864 -1158 -1172 -906 0
850 906 0
864 906 0
1158 906 0
1172 906 0
647 917 0
-647 -917 0
648 918 0
-648 -918 0
754 919 0
-754 -919 0
-754 -917 921 0
754 -921 0
917 -921 0
-919 -917 922 0
919 -922 0
917 -922 0
-635 -647 923 0
635 -923 0
647 -923 0
-636 -647 924 0
636 -924 0
647 -924 0
-921 -918 930 0
921 -930 0
918 -930 0
-922 -648 928 0
922 -928 0
648 -928 0
-923 -918 926 0
923 -926 0
918 -926 0
-924 -648 925 0
924 -925 0
648 -925 0
925 926 -927 0
-925 927 0
-926 927 0
927 928 -929 0
-927 929 0
-928 929 0
930 929 -920 0
-930 920 0
-929 920 0
649 931 0
-649 -931 0
650 932 0
-650 -932 0
800 933 0
-800 -933 0
-800 -931 935 0
800 -935 0
931 -935 0
-933 -931 936 0
933 -936 0
931 -936 0
-635 -649 937 0
635 -937 0
649 -937 0
-636 -649 938 0
636 -938 0
649 -938 0
-935 -932 944 0
935 -944 0
932 -944 0
-936 -650 942 0
936 -942 0
650 -942 0
-937 -932 940 0
937 -940 0
932 -940 0
-938 -650 939 0
938 -939 0
650 -939 0
939 940 -941 0
-939 941 0
-940 941 0
941 942 -943 0
-941 943 0
-942 943 0
944 943 -1186 0
-944 1186 0
-943 1186 0
651 945 0
-651 -945 0
652 946 0
-652 -946 0
822 947 0
-822 -947 0
-822 -945 949 0
822 -949 0
945 -949 0
-947 -945 950 0
947 -950 0
945 -950 0
-635 -651 951 0
635 -951 0
651 -951 0
-636 -651 952 0
636 -952 0
651 -952 0
-949 -946 958 0
949 -958 0
946 -958 0
-950 -652 956 0
950 -956 0
652 -956 0
-951 -946 954 0
951 -954 0
946 -954 0
-952 -652 953 0
952 -953 0
652 -953 0
953 954 -955 0
-953 955 0
-954 955 0
955 956 -957 0
-955 957 0
-956 957 0
958 957 -948 0
-958 948 0
-957 948 0
653 959 0
-653 -959 0
654 960 0
-654 -960 0
612 961 0
-612 -961 0
-612 -959 963 0
612 -963 0
959 -963 0
-961 -959 964 0
961 -964 0
959 -964 0
-635 -653 965 0
635 -965 0
653 -965 0
-636 -653 966 0
636 -966 0
653 -966 0
-963 -960 972 0
963 -972 0
960 -972 0
-964 -654 970 0
964 -970 0
654 -970 0
-965 -960 968 0
965 -968 0
960 -968 0
-966 -654 967 0
966 -967 0
654 -967 0
967 968 -969 0
-967 969 0
-968 969 0
969 970 -971 0
-969 971 0
-970 971 0
972 971 -962 0
-972 962 0
-971 962 0
655 973 0
-655 -973 0
656 974 0
-656 -974 0
976 975 0
-976 -975 0
-976 -973 977 0
976 -977 0
973 -977 0
-975 -973 978 0
975 -978 0
973 -978 0
-635 -655 979 0
635 -979 0
655 -979 0
-636 -655 980 0
636 -980 0
655 -980 0
-977 -974 986 0
977 -986 0
974 -986 0
-978 -656 984 0
978 -984 0
656 -984 0
-979 -974 982 0
979 -982 0
974 -982 0
-980 -656 981 0
980 -981 0
656 -981 0
981 982 -983 0
-981 983 0
-982 983 0
983 984 -985 0
-983 985 0
-984 985 0
986 985 -831 0
-986 831 0
-985 831 0
-920 -1186 -948 -962 -976 0
920 976 0
1186 976 0
948 976 0
962 976 0
657 987 0
-657 -987 0
658 988 0
-658 -988 0
818 989 0
-818 -989 0
-818 -987 991 0
818 -991 0
987 -991 0
-989 -987 992 0
989 -992 0
987 -992 0
-635 -657 993 0
635 -993 0
657 -993 0
-636 -657 994 0
636 -994 0
657 -994 0
-991 -988 1000 0
991 -1000 0
988 -1000 0
-992 -658 998 0
992 -998 0
658 -998 0
-993 -988 996 0
993 -996 0
988 -996 0
-994 -658 995 0
994 -995 0
658 -995 0
995 996 -997 0
-995 997 0
-996 997 0
997 998 -999 0
-997 999 0
-998 999 0
1000 999 -990 0
-1000 990 0
-999 990 0
659 1001 0
-659 -1001 0
660 1002 0
-660 -1002 0
627 1003 0
-627 -1003 0
-627 -1001 1005 0
627 -1005 0
1001 -1005 0
-1003 -1001 1006 0
1003 -1006 0
1001 -1006 0
-635 -659 1007 0
635 -1007 0
659 -1007 0
-636 -659 1008 0
636 -1008 0
659 -1008 0
-1005 -1002 1014 0
1005 -1014 0
1002 -1014 0
-1006 -660 1012 0
1006 -1012 0
660 -1012 0
-1007 -1002 1010 0
1007 -1010 0
1002 -1010 0
-1008 -660 1009 0
1008 -1009 0
660 -1009 0
1009 1010 -1011 0
-1009 1011 0
-1010 1011 0
1011 1012 -1013 0
-1011 1013 0
-1012 1013 0
1014 1013 -1004 0
-1014 1004 0
-1013 1004 0
661 1015 0
-661 -1015 0
662 1016 0
-662 -1016 0
600 1157 0
-600 -1157 0
-600 -1015 1019 0
600 -1019 0
1015 -1019 0
-1157 -1015 1020 0
1157 -1020 0
1015 -1020 0
-635 -661 1021 0
635 -1021 0
661 -1021 0
-636 -661 1022 0
636 -1022 0
661 -1022 0
-1019 -1016 1028 0
1019 -1028 0
1016 -1028 0
-1020 -662 1026 0
1020 -1026 0
662 -1026 0
-1021 -1016 1024 0
1021 -1024 0
1016 -1024 0
-1022 -662 1023 0
1022 -1023 0
662 -1023 0
1023 1024 -1025 0
-1023 1025 0
-1024 1025 0
1025 1026 -1027 0
-1025 1027 0
-1026 1027 0
1028 1027 -1158 0
-1028 1158 0
-1027 1158 0
663 1029 0
-663 -1029 0
664 1030 0
-664 -1030 0
599 1171 0
-599 -1171 0
-599 -1029 1033 0
599 -1033 0
1029 -1033 0
-1171 -1029 1034 0
1171 -1034 0
1029 -1034 0
-635 -663 1035 0
635 -1035 0
663 -1035 0
-636 -663 1036 0
636 -1036 0
663 -1036 0
-1033 -1030 1042 0
1033 -1042 0
1030 -1042 0
-1034 -664 1040 0
1034 -1040 0
664 -1040 0
-1035 -1030 1038 0
1035 -1038 0
1030 -1038 0
-1036 -664 1037 0
1036 -1037 0
664 -1037 0
1037 1038 -1039 0
-1037 1039 0
-1038 1039 0
1039 1040 -1041 0
-1039 1041 0
-1040 1041 0
1042 1041 -1172 0
-1042 1172 0
-1041 1172 0
665 1043 0
-665 -1043 0
666 1044 0
-666 -1044 0
1046 1045 0
-1046 -1045 0
-1046 -1043 1047 0
1046 -1047 0
1043 -1047 0
-1045 -1043 1048 0
1045 -1048 0
1043 -1048 0
-635 -665 1049 0
635 -1049 0
665 -1049 0
-636 -665 1050 0
636 -1050 0
665 -1050 0
-1047 -1044 1056 0
1047 -1056 0
1044 -1056 0
-1048 -666 1054 0
1048 -1054 0
666 -1054 0
-1049 -1044 1052 0
1049 -1052 0
1044 -1052 0
-1050 -666 1051 0
1050 -1051 0
666 -1051 0
1051 1052 -1053 0
-1051 1053 0
-1052 1053 0
1053 1054 -1055 0
-1053 1055 0
-1054 1055 0
1056 1055 -825 0
-1056 825 0
-1055 825 0
-990 -1004 -1158 -1172 -1046 0
990 1046 0
1004 1046 0
1158 1046 0
1172 1046 0
667 1057 0
-667 -1057 0
668 1058 0
-668 -1058 0
743 1059 0
-743 -1059 0
-743 -1057 1061 0
743 -1061 0
1057 -1061 0
-1059 -1057 1062 0
1059 -1062 0
1057 -1062 0
-635 -667 1063 0
635 -1063 0
667 -1063 0
-636 -667 1064 0
636 -1064 0
667 -1064 0
-1061 -1058 1070 0
1061 -1070 0
1058 -1070 0
-1062 -668 1068 0
1062 -1068 0
668 -1068 0
-1063 -1058 1066 0
1063 -1066 0
1058 -1066 0
-1064 -668 1065 0
1064 -1065 0
668 -1065 0
1065 1066 -1067 0
-1065 1067 0
-1066 1067 0
1067 1068 -1069 0
-1067 1069 0
-1068 1069 0
1070 1069 -1060 0
-1070 1060 0
-1069 1060 0
669 1071 0
-669 -1071 0
670 1072 0
-670 -1072 0
723 1073 0
-723 -1073 0
-723 -1071 1075 0
723 -1075 0
1071 -1075 0
-1073 -1071 1076 0
1073 -1076 0
1071 -1076 0
-635 -669 1077 0
635 -1077 0
669 -1077 0
-636 -669 1078 0
636 -1078 0
669 -1078 0
-1075 -1072 1084 0
1075 -1084 0
1072 -1084 0
-1076 -670 1082 0
1076 -1082 0
670 -1082 0
-1077 -1072 1080 0
1077 -1080 0
1072 -1080 0
-1078 -670 1079 0
1078 -1079 0
670 -1079 0
1079 1080 -1081 0
-1079 1081 0
-1080 1081 0
1081 1082 -1083 0
-1081 1083 0
-1082 1083 0
1084 1083 -1074 0
-1084 1074 0
-1083 1074 0
671 1085 0
-671 -1085 0
672 1086 0
-672 -1086 0
600 1157 0
-600 -1157 0
-600 -1085 1089 0
600 -1089 0
1085 -1089 0
-1157 -1085 1090 0
1157 -1090 0
1085 -1090 0
-635 -671 1091 0
635 -1091 0
671 -1091 0
-636 -671 1092 0
636 -1092 0
671 -1092 0
-1089 -1086 1098 0
1089 -1098 0
1086 -1098 0
-1090 -672 1096 0
1090 -1096 0
672 -1096 0
-1091 -1086 1094 0
1091 -1094 0
1086 -1094 0
-1092 -672 1093 0
1092 -1093 0
672 -1093 0
1093 1094 -1095 0
-1093 1095 0
-1094 1095 0
1095 1096 -1097 0
-1095 1097 0
-1096 1097 0
1098 1097 -1158 0
-1098 1158 0
-1097 1158 0
673 1099 0
-673 -1099 0
674 1100 0
-674 -1100 0
599 1171 0
-599 -1171 0
-599 -1099 1103 0
599 -1103 0
1099 -1103 0
-1171 -1099 1104 0
1171 -1104 0
1099 -1104 0
-635 -673 1105 0
635 -1105 0
673 -1105 0
-636 -673 1106 0
636 -1106 0
673 -1106 0
-1103 -1100 1112 0
1103 -1112 0
1100 -1112 0
-1104 -674 1110 0
1104 -1110 0
674 -1110 0
-1105 -1100 1108 0
1105 -1108 0
1100 -1108 0
-1106 -674 1107 0
1106 -1107 0
674 -1107 0
1107 1108 -1109 0
-1107 1109 0
-1108 1109 0
1109 1110 -1111 0
-1109 1111 0
-1110 1111 0
1112 1111 -1172 0
-1112 1172 0
-1111 1172 0
675 1113 0
-675 -1113 0
676 1114 0
-676 -1114 0
1116 1115 0
-1116 -1115 0
-1116 -1113 1117 0
1116 -1117 0
1113 -1117 0
-1115 -1113 1118 0
1115 -1118 0
1113 -1118 0
-635 -675 1119 0
635 -1119 0
675 -1119 0
-636 -675 1120 0
636 -1120 0
675 -1120 0
-1117 -1114 1126 0
1117 -1126 0
1114 -1126 0
-1118 -676 1124 0
1118 -1124 0
676 -1124 0
-1119 -1114 1122 0
1119 -1122 0
1114 -1122 0
-1120 -676 1121 0
1120 -1121 0
676 -1121 0
1121 1122 -1123 0
-1121 1123 0
-1122 1123 0
1123 1124 -1125 0
-1123 1125 0
-1124 1125 0
1126 1125 -762 0
-1126 762 0
-1125 762 0
-1060 -1074 -1158 -1172 -1116 0
1060 1116 0
1074 1116 0
1158 1116 0
1172 1116 0
677 1127 0
-677 -1127 0
678 1128 0
-678 -1128 0
789 1129 0
-789 -1129 0
-789 -1127 1131 0
789 -1131 0
1127 -1131 0
-1129 -1127 1132 0
1129 -1132 0
1127 -1132 0
-635 -677 1133 0
635 -1133 0
677 -1133 0
-636 -677 1134 0
636 -1134 0
677 -1134 0
-1131 -1128 1140 0
1131 -1140 0
1128 -1140 0
-1132 -678 1138 0
1132 -1138 0
678 -1138 0
-1133 -1128 1136 0
1133 -1136 0
1128 -1136 0
-1134 -678 1135 0
1134 -1135 0
678 -1135 0
1135 1136 -1137 0
-1135 1137 0
-1136 1137 0
1137 1138 -1139 0
-1137 1139 0
-1138 1139 0
1140 1139 -1130 0
-1140 1130 0
-1139 1130 0
679 1141 0
-679 -1141 0
680 1142 0
-680 -1142 0
613 1143 0
-613 -1143 0
-613 -1141 1145 0
613 -1145 0
1141 -1145 0
-1143 -1141 1146 0
1143 -1146 0
1141 -1146 0
-635 -679 1147 0
635 -1147 0
679 -1147 0
-636 -679 1148 0
636 -1148 0
679 -1148 0
-1145 -1142 1154 0
1145 -1154 0
1142 -1154 0
-1146 -680 1152 0
1146 -1152 0
680 -1152 0
-1147 -1142 1150 0
1147 -1150 0
1142 -1150 0
-1148 -680 1149 0
1148 -1149 0
680 -1149 0
1149 1150 -1151 0
-1149 1151 0
-1150 1151 0
1151 1152 -1153 0
-1151 1153 0
-1152 1153 0
1154 1153 -1144 0
-1154 1144 0
-1153 1144 0
681 1155 0
-681 -1155 0
682 1156 0
-682 -1156 0
600 1157 0
-600 -1157 0
-600 -1155 1159 0
600 -1159 0
1155 -1159 0
-1157 -1155 1160 0
1157 -1160 0
1155 -1160 0
-635 -681 1161 0
635 -1161 0
681 -1161 0
-636 -681 1162 0
636 -1162 0
681 -1162 0
-1159 -1156 1168 0
1159 -1168 0
1156 -1168 0
-1160 -682 1166 0
1160 -1166 0
682 -1166 0
-1161 -1156 1164 0
1161 -1164 0
1156 -1164 0
-1162 -682 1163 0
1162 -1163 0
682 -1163 0
1163 1164 -1165 0
-1163 1165 0
-1164 1165 0
1165 1166 -1167 0
-1165 1167 0
-1166 1167 0
1168 1167 -1158 0
-1168 1158 0
-1167 1158 0
683 1169 0
-683 -1169 0
684 1170 0
-684 -1170 0
599 1171 0
-599 -1171 0
-599 -1169 1173 0
599 -1173 0
1169 -1173 0
-1171 -1169 1174 0
1171 -1174 0
1169 -1174 0
-635 -683 1175 0
635 -1175 0
683 -1175 0
-636 -683 1176 0
636 -1176 0
683 -1176 0
-1173 -1170 1182 0
1173 -1182 0
1170 -1182 0
-1174 -684 1180 0
1174 -1180 0
684 -1180 0
-1175 -1170 1178 0
1175 -1178 0
1170 -1178 0
-1176 -684 1177 0
1176 -1177 0
684 -1177 0
1177 1178 -1179 0
-1177 1179 0
-1178 1179 0
1179 1180 -1181 0
-1179 1181 0
-1180 1181 0
1182 1181 -1172 0
-1182 1172 0
-1181 1172 0
685 1183 0
-685 -1183 0
686 1184 0
-686 -1184 0
1186 1185 0
-1186 -1185 0
-1186 -1183 1187 0
1186 -1187 0
1183 -1187 0
-1185 -1183 1188 0
1185 -1188 0
1183 -1188 0
-635 -685 1189 0
635 -1189 0
685 -1189 0
-636 -685 1190 0
636 -1190 0
685 -1190 0
-1187 -1184 1196 0
1187 -1196 0
1184 -1196 0
-1188 -686 1194 0
1188 -1194 0
686 -1194 0
-1189 -1184 1192 0
1189 -1192 0
1184 -1192 0
-1190 -686 1191 0
1190 -1191 0
686 -1191 0
1191 1192 -1193 0
-1191 1193 0
-1192 1193 0
1193 1194 -1195 0
-1193 1195 0
-1194 1195 0
1196 1195 -800 0
-1196 800 0
-1195 800 0
-1130 -1144 -1158 -1172 -1186 0
1130 1186 0
1144 1186 0
1158 1186 0
1172 1186 0
37 0
-38 0
c Force PIs of 2 ckts to be the same:
1 -599 0
-1 599 0
2 -600 0
-2 600 0
3 -601 0
-3 601 0
4 -602 0
-4 602 0
5 -603 0
-5 603 0
6 -604 0
-6 604 0
7 -605 0
-7 605 0
8 -606 0
-8 606 0
9 -607 0
-9 607 0
10 -608 0
-10 608 0
11 -609 0
-11 609 0
12 -610 0
-12 610 0
13 -611 0
-13 611 0
14 -612 0
-14 612 0
15 -613 0
-15 613 0
16 -614 0
-16 614 0
17 -615 0
-17 615 0
18 -616 0
-18 616 0
19 -617 0
-19 617 0
20 -618 0
-20 618 0
21 -619 0
-21 619 0
22 -620 0
-22 620 0
23 -621 0
-23 621 0
24 -622 0
-24 622 0
25 -623 0
-25 623 0
26 -624 0
-26 624 0
27 -625 0
-27 625 0
28 -626 0
-28 626 0
29 -627 0
-29 627 0
30 -628 0
-30 628 0
31 -629 0
-31 629 0
32 -630 0
-32 630 0
33 -631 0
-33 631 0
34 -632 0
-34 632 0
35 -633 0
-35 633 0
36 -634 0
-36 634 0
37 -635 0
-37 635 0
38 -636 0
-38 636 0
c XOR outputs of 2 ckts:
-89 -687 -1197 0
89 687 -1197 0
89 -687 1197 0
-89 687 1197 0
-90 -688 -1198 0
90 688 -1198 0
90 -688 1198 0
-90 688 1198 0
-91 -689 -1199 0
91 689 -1199 0
91 -689 1199 0
-91 689 1199 0
-92 -690 -1200 0
92 690 -1200 0
92 -690 1200 0
-92 690 1200 0
-93 -691 -1201 0
93 691 -1201 0
93 -691 1201 0
-93 691 1201 0
-94 -692 -1202 0
94 692 -1202 0
94 -692 1202 0
-94 692 1202 0
-95 -693 -1203 0
95 693 -1203 0
95 -693 1203 0
-95 693 1203 0
c The last OR gate of the miter:
1197 1198 1199 1200 1201 1202 1203 -1204 0
-1197 1204 0
-1198 1204 0
-1199 1204 0
-1200 1204 0
-1201 1204 0
-1202 1204 0
-1203 1204 0
1204 0
